NAME : S-G-150-16.2558.tour
COMMENT : Length = 2558
COMMENT : Found by LKH [Keld Helsgaun] Thu May 17 23:18:20 2018
TYPE : TOUR
DIMENSION : 31
TOUR_SECTION
1
31
28
12
15
10
4
6
18
22
29
21
25
27
23
26
19
30
24
20
7
2
3
14
5
17
9
13
11
8
16
-1
EOF
